146
526
37
83
176
24
49
47
540
27
103
85
0
108
225
173
66
51
23
57
49
58
122
67
151
23
27
721
39
30
32
174
76
50
25
29
131
44
238
84
140
46
22
348
39
78
126
0
80
16
96
274
90
52
26
0
47
195
38
48
70
95
96
23
0
122
221
51
71
67
41
70
91
58
0
20
87
80
46
64
61
38
82
0
86
38
110
40
70
93
35
74
133
36
66
351
65
38
28
57
